30 None
29
6 18 0 0
2 12 6 0
10 7 8 0
4 23 18 0
4 1 22 0
7 7 22 1
11 4 6 12
6 5 6 16
2 7 12 16
6 11 0 18
10 19 6 23
11 5 16 23
4 2 16 28
7 5 20 28
4 2 0 29
7 12 0 42
7 13 16 33
3 6 27 8
6 10 23 33
9 16 7 42
1 4 29 14
4 10 23 43
6 24 16 46
9 9 0 58
2 1 27 43
8 5 22 53
3 5 9 58
7 25 9 63
5 21 22 58

301
True